% seed = 6375556

mint = 55;
% maxt = 191;

nActs = 42;
dur = [0,1,9,7,4,7,4,1,4,4,3,4,2,8,5,3,7,3,9,6,4,2,5,1,9,2,4,2,10,4,4,10,5,4,1,8,2,3,7,6,7,0];

nSkills = 4;
sreq = [| 0,0,0,0,
	| 0,6,6,4,
	| 0,7,2,6,
	| 5,4,0,3,
	| 0,4,0,4,
	| 3,2,4,1,
	| 3,3,3,3,
	| 4,6,3,7,
	| 2,4,3,5,
	| 3,0,0,4,
	| 0,7,0,6,
	| 2,3,3,4,
	| 4,4,0,3,
	| 0,0,7,1,
	| 0,0,6,6,
	| 7,6,0,0,
	| 0,5,0,5,
	| 0,7,0,6,
	| 0,6,3,2,
	| 0,3,6,3,
	| 0,4,5,7,
	| 0,2,7,0,
	| 0,5,7,0,
	| 0,3,6,4,
	| 0,5,0,5,
	| 5,6,0,0,
	| 5,0,0,6,
	| 4,6,0,4,
	| 0,0,5,7,
	| 0,6,7,0,
	| 7,0,3,0,
	| 0,2,0,5,
	| 0,0,7,7,
	| 2,3,3,4,
	| 0,7,0,7,
	| 7,0,6,0,
	| 4,4,4,2,
	| 2,2,4,2,
	| 5,0,3,2,
	| 4,6,2,2,
	| 0,5,0,7,
	| 0,0,0,0, |];

nResources = 38;
mastery = [| true,false,true,true,
	| true,false,false,false,
	| true,false,true,false,
	| false,false,true,false,
	| true,false,false,true,
	| false,false,false,true,
	| false,false,false,true,
	| false,false,true,false,
	| false,false,false,true,
	| true,true,true,false,
	| true,false,true,true,
	| true,false,true,true,
	| false,false,false,true,
	| true,false,true,true,
	| true,true,true,false,
	| false,true,true,true,
	| false,true,true,true,
	| true,false,false,false,
	| true,true,false,true,
	| false,false,true,false,
	| false,true,false,false,
	| true,false,true,true,
	| false,false,false,true,
	| true,false,true,false,
	| false,true,true,false,
	| true,false,true,true,
	| true,false,false,false,
	| false,true,true,true,
	| true,true,false,false,
	| false,true,true,true,
	| false,false,false,true,
	| true,true,true,false,
	| true,false,true,true,
	| true,true,true,false,
	| true,false,true,true,
	| false,false,false,true,
	| true,false,true,true,
	| true,true,false,true, |];

nPrecs = 73;
pred = [1,1,1,2,2,2,3,3,3,4,4,5,6,6,7,7,7,8,8,8,9,9,10,10,10,11,11,11,12,12,13,13,13,14,14,14,15,15,15,16,16,16,17,17,18,19,20,21,22,23,24,24,25,26,26,27,28,28,29,30,31,32,33,33,34,35,35,36,37,38,39,40,41];
succ = [2,3,4,10,12,14,5,6,8,22,30,41,14,7,9,41,31,35,29,24,33,18,11,15,16,29,28,13,26,13,17,34,21,19,38,15,25,21,40,28,26,20,22,23,25,27,37,27,27,37,34,39,36,30,31,35,35,32,32,40,32,33,34,38,40,36,39,37,41,39,42,42,42];

nUnrels = 455;
unpred = [2,2,2,2,2,2,2,2,2,3,3,3,3,3,3,3,3,3,3,3,3,3,4,4,4,4,4,4,4,4,4,4,4,4,4,4,4,4,4,4,4,4,4,4,4,4,4,4,4,4,5,5,5,5,5,5,5,5,5,5,5,5,5,5,5,5,5,5,5,5,5,5,5,5,5,5,5,5,5,5,5,5,5,5,5,6,6,6,6,6,6,6,6,6,6,6,6,6,6,6,7,7,7,7,7,7,7,7,7,7,7,7,7,7,7,7,7,7,7,7,7,8,8,8,8,8,8,8,8,8,8,8,8,8,8,8,8,8,8,8,8,8,9,9,9,9,9,9,9,9,9,9,9,9,9,9,9,9,9,9,9,9,9,9,10,10,10,10,10,11,11,11,11,11,11,11,11,11,11,11,11,12,12,12,12,12,12,12,12,12,12,13,13,13,13,13,13,13,13,13,13,13,13,13,13,13,13,14,14,14,14,14,14,14,14,14,14,14,14,14,14,14,15,15,15,15,15,15,15,15,15,15,15,15,15,15,15,15,15,16,16,16,16,16,16,16,16,16,16,17,17,17,17,17,17,17,17,17,17,17,17,17,17,17,17,18,18,18,18,18,18,18,18,18,18,18,18,18,18,18,18,18,18,18,19,19,19,19,19,19,19,19,19,19,19,19,19,19,19,19,20,20,20,20,20,20,20,20,20,20,20,20,20,20,20,20,20,20,20,21,21,21,21,21,21,21,21,21,21,21,21,21,21,22,22,22,22,22,22,22,22,22,22,22,22,22,23,23,23,23,23,23,23,23,23,23,23,23,23,23,23,23,24,24,24,24,24,24,24,24,24,24,24,24,24,24,25,25,25,25,25,25,25,25,25,25,25,25,25,26,26,26,26,26,26,26,27,27,27,27,27,27,27,27,27,28,28,28,29,29,29,29,29,29,30,30,30,30,30,30,30,30,30,30,31,31,31,31,32,32,32,32,33,33,33,33,34,34,34,34,34,34,35,35,36,36,36,37,37,37,38,38,39,39,40];
unsucc = [3,4,5,6,7,8,9,18,24,4,10,11,12,13,16,17,20,22,23,26,28,30,5,6,7,8,9,10,11,12,13,14,15,16,17,18,19,20,21,23,24,25,26,28,29,31,32,33,34,38,6,7,8,9,10,11,12,13,14,15,16,17,18,19,20,21,22,23,24,25,26,27,28,29,30,31,32,33,34,35,36,37,38,39,40,8,10,11,12,13,16,17,20,22,23,24,26,28,29,30,8,10,11,12,13,14,15,16,17,19,20,21,22,23,24,26,27,28,29,30,35,9,10,11,12,13,14,15,16,17,18,19,20,21,22,23,25,26,27,28,30,31,10,11,12,13,14,15,16,17,19,20,21,22,23,24,26,27,28,29,30,31,32,35,12,14,18,19,24,12,14,15,16,18,19,20,24,25,26,30,31,14,15,16,18,19,20,24,25,28,29,14,15,16,18,19,20,24,25,26,28,29,30,31,32,33,38,16,17,18,20,22,23,24,26,28,29,30,31,32,33,34,16,17,18,19,20,22,23,24,26,28,29,30,31,32,33,34,38,17,18,19,21,22,23,24,25,27,29,18,19,20,21,24,25,26,28,29,30,31,32,33,34,38,40,19,20,21,22,23,24,26,27,28,29,30,31,32,33,34,35,38,39,40,20,21,22,23,24,25,26,28,29,30,31,32,33,34,38,40,21,22,23,24,25,26,27,28,29,30,31,32,33,34,35,36,38,39,40,22,23,24,25,26,28,29,30,31,32,33,34,38,40,23,24,25,26,28,29,30,31,32,33,34,38,40,24,25,26,27,28,29,30,31,32,33,34,35,36,38,39,40,25,26,27,28,29,30,31,32,33,35,36,37,38,41,26,27,28,29,30,31,32,33,34,35,38,39,40,27,28,29,35,36,37,41,28,29,30,31,32,33,34,38,40,29,30,31,30,31,35,36,37,41,31,32,33,34,35,36,37,38,39,41,35,36,37,41,35,36,37,41,35,36,37,41,35,36,37,38,39,41,38,40,38,39,40,38,39,40,40,41,40,41,41];

USEFUL_RES = [{},
	{1,3,4,5,6,7,8,9,10,11,12,13,14,15,16,17,19,20,21,22,23,24,25,26,28,29,30,31,32,33,34,35,36,37,38},
	{1,3,4,5,6,7,8,9,10,11,12,13,14,15,16,17,19,20,21,22,23,24,25,26,28,29,30,31,32,33,34,35,36,37,38},
	{1,2,3,5,6,7,9,10,11,12,13,14,15,16,17,18,19,21,22,23,24,25,26,27,28,29,30,31,32,33,34,35,36,37,38},
	{1,5,6,7,9,10,11,12,13,14,15,16,17,19,21,22,23,25,26,28,29,30,31,32,33,34,35,36,37,38},
	{1,2,3,4,5,6,7,8,9,10,11,12,13,14,15,16,17,18,19,20,21,22,23,24,25,26,27,28,29,30,31,32,33,34,35,36,37,38},
	{1,2,3,4,5,6,7,8,9,10,11,12,13,14,15,16,17,18,19,20,21,22,23,24,25,26,27,28,29,30,31,32,33,34,35,36,37,38},
	{1,2,3,4,5,6,7,8,9,10,11,12,13,14,15,16,17,18,19,20,21,22,23,24,25,26,27,28,29,30,31,32,33,34,35,36,37,38},
	{1,2,3,4,5,6,7,8,9,10,11,12,13,14,15,16,17,18,19,20,21,22,23,24,25,26,27,28,29,30,31,32,33,34,35,36,37,38},
	{1,2,3,5,6,7,9,10,11,12,13,14,15,16,17,18,19,22,23,24,26,27,28,29,30,31,32,33,34,35,36,37,38},
	{1,5,6,7,9,10,11,12,13,14,15,16,17,19,21,22,23,25,26,28,29,30,31,32,33,34,35,36,37,38},
	{1,2,3,4,5,6,7,8,9,10,11,12,13,14,15,16,17,18,19,20,21,22,23,24,25,26,27,28,29,30,31,32,33,34,35,36,37,38},
	{1,2,3,5,6,7,9,10,11,12,13,14,15,16,17,18,19,21,22,23,24,25,26,27,28,29,30,31,32,33,34,35,36,37,38},
	{1,3,4,5,6,7,8,9,10,11,12,13,14,15,16,17,19,20,22,23,24,25,26,28,30,31,32,33,34,35,36,37,38},
	{1,3,4,5,6,7,8,9,10,11,12,13,14,15,16,17,19,20,22,23,24,25,26,28,30,31,32,33,34,35,36,37,38},
	{1,2,3,5,10,11,12,14,15,16,17,18,19,21,22,24,25,26,27,28,29,30,32,33,34,35,37,38},
	{1,5,6,7,9,10,11,12,13,14,15,16,17,19,21,22,23,25,26,28,29,30,31,32,33,34,35,36,37,38},
	{1,5,6,7,9,10,11,12,13,14,15,16,17,19,21,22,23,25,26,28,29,30,31,32,33,34,35,36,37,38},
	{1,3,4,5,6,7,8,9,10,11,12,13,14,15,16,17,19,20,21,22,23,24,25,26,28,29,30,31,32,33,34,35,36,37,38},
	{1,3,4,5,6,7,8,9,10,11,12,13,14,15,16,17,19,20,21,22,23,24,25,26,28,29,30,31,32,33,34,35,36,37,38},
	{1,3,4,5,6,7,8,9,10,11,12,13,14,15,16,17,19,20,21,22,23,24,25,26,28,29,30,31,32,33,34,35,36,37,38},
	{1,3,4,8,10,11,12,14,15,16,17,19,20,21,22,24,25,26,28,29,30,32,33,34,35,37,38},
	{1,3,4,8,10,11,12,14,15,16,17,19,20,21,22,24,25,26,28,29,30,32,33,34,35,37,38},
	{1,3,4,5,6,7,8,9,10,11,12,13,14,15,16,17,19,20,21,22,23,24,25,26,28,29,30,31,32,33,34,35,36,37,38},
	{1,5,6,7,9,10,11,12,13,14,15,16,17,19,21,22,23,25,26,28,29,30,31,32,33,34,35,36,37,38},
	{1,2,3,5,10,11,12,14,15,16,17,18,19,21,22,24,25,26,27,28,29,30,32,33,34,35,37,38},
	{1,2,3,5,6,7,9,10,11,12,13,14,15,16,17,18,19,22,23,24,26,27,28,29,30,31,32,33,34,35,36,37,38},
	{1,2,3,5,6,7,9,10,11,12,13,14,15,16,17,18,19,21,22,23,24,25,26,27,28,29,30,31,32,33,34,35,36,37,38},
	{1,3,4,5,6,7,8,9,10,11,12,13,14,15,16,17,19,20,22,23,24,25,26,28,30,31,32,33,34,35,36,37,38},
	{1,3,4,8,10,11,12,14,15,16,17,19,20,21,22,24,25,26,28,29,30,32,33,34,35,37,38},
	{1,2,3,4,5,8,10,11,12,14,15,16,17,18,19,20,22,24,25,26,27,28,29,30,32,33,34,35,37,38},
	{1,5,6,7,9,10,11,12,13,14,15,16,17,19,21,22,23,25,26,28,29,30,31,32,33,34,35,36,37,38},
	{1,3,4,5,6,7,8,9,10,11,12,13,14,15,16,17,19,20,22,23,24,25,26,28,30,31,32,33,34,35,36,37,38},
	{1,2,3,4,5,6,7,8,9,10,11,12,13,14,15,16,17,18,19,20,21,22,23,24,25,26,27,28,29,30,31,32,33,34,35,36,37,38},
	{1,5,6,7,9,10,11,12,13,14,15,16,17,19,21,22,23,25,26,28,29,30,31,32,33,34,35,36,37,38},
	{1,2,3,4,5,8,10,11,12,14,15,16,17,18,19,20,22,24,25,26,27,28,29,30,32,33,34,35,37,38},
	{1,2,3,4,5,6,7,8,9,10,11,12,13,14,15,16,17,18,19,20,21,22,23,24,25,26,27,28,29,30,31,32,33,34,35,36,37,38},
	{1,2,3,4,5,6,7,8,9,10,11,12,13,14,15,16,17,18,19,20,21,22,23,24,25,26,27,28,29,30,31,32,33,34,35,36,37,38},
	{1,2,3,4,5,6,7,8,9,10,11,12,13,14,15,16,17,18,19,20,22,23,24,25,26,27,28,29,30,31,32,33,34,35,36,37,38},
	{1,2,3,4,5,6,7,8,9,10,11,12,13,14,15,16,17,18,19,20,21,22,23,24,25,26,27,28,29,30,31,32,33,34,35,36,37,38},
	{1,5,6,7,9,10,11,12,13,14,15,16,17,19,21,22,23,25,26,28,29,30,31,32,33,34,35,36,37,38},
	{}];

POTENTIAL_ACT = [{2,3,4,5,6,7,8,9,10,11,12,13,14,15,16,17,18,19,20,21,22,23,24,25,26,27,28,29,30,31,32,33,34,35,36,37,38,39,40,41},
	{4,6,7,8,9,10,12,13,16,26,27,28,31,34,36,37,38,39,40},
	{2,3,4,6,7,8,9,10,12,13,14,15,16,19,20,21,22,23,24,26,27,28,29,30,31,33,34,36,37,38,39,40},
	{2,3,6,7,8,9,12,14,15,19,20,21,22,23,24,29,30,31,33,34,36,37,38,39,40},
	{2,3,4,5,6,7,8,9,10,11,12,13,14,15,16,17,18,19,20,21,24,25,26,27,28,29,31,32,33,34,35,36,37,38,39,40,41},
	{2,3,4,5,6,7,8,9,10,11,12,13,14,15,17,18,19,20,21,24,25,27,28,29,32,33,34,35,37,38,39,40,41},
	{2,3,4,5,6,7,8,9,10,11,12,13,14,15,17,18,19,20,21,24,25,27,28,29,32,33,34,35,37,38,39,40,41},
	{2,3,6,7,8,9,12,14,15,19,20,21,22,23,24,29,30,31,33,34,36,37,38,39,40},
	{2,3,4,5,6,7,8,9,10,11,12,13,14,15,17,18,19,20,21,24,25,27,28,29,32,33,34,35,37,38,39,40,41},
	{2,3,4,5,6,7,8,9,10,11,12,13,14,15,16,17,18,19,20,21,22,23,24,25,26,27,28,29,30,31,32,33,34,35,36,37,38,39,40,41},
	{2,3,4,5,6,7,8,9,10,11,12,13,14,15,16,17,18,19,20,21,22,23,24,25,26,27,28,29,30,31,32,33,34,35,36,37,38,39,40,41},
	{2,3,4,5,6,7,8,9,10,11,12,13,14,15,16,17,18,19,20,21,22,23,24,25,26,27,28,29,30,31,32,33,34,35,36,37,38,39,40,41},
	{2,3,4,5,6,7,8,9,10,11,12,13,14,15,17,18,19,20,21,24,25,27,28,29,32,33,34,35,37,38,39,40,41},
	{2,3,4,5,6,7,8,9,10,11,12,13,14,15,16,17,18,19,20,21,22,23,24,25,26,27,28,29,30,31,32,33,34,35,36,37,38,39,40,41},
	{2,3,4,5,6,7,8,9,10,11,12,13,14,15,16,17,18,19,20,21,22,23,24,25,26,27,28,29,30,31,32,33,34,35,36,37,38,39,40,41},
	{2,3,4,5,6,7,8,9,10,11,12,13,14,15,16,17,18,19,20,21,22,23,24,25,26,27,28,29,30,31,32,33,34,35,36,37,38,39,40,41},
	{2,3,4,5,6,7,8,9,10,11,12,13,14,15,16,17,18,19,20,21,22,23,24,25,26,27,28,29,30,31,32,33,34,35,36,37,38,39,40,41},
	{4,6,7,8,9,10,12,13,16,26,27,28,31,34,36,37,38,39,40},
	{2,3,4,5,6,7,8,9,10,11,12,13,14,15,16,17,18,19,20,21,22,23,24,25,26,27,28,29,30,31,32,33,34,35,36,37,38,39,40,41},
	{2,3,6,7,8,9,12,14,15,19,20,21,22,23,24,29,30,31,33,34,36,37,38,39,40},
	{2,3,4,5,6,7,8,9,11,12,13,16,17,18,19,20,21,22,23,24,25,26,28,30,32,34,35,37,38,40,41},
	{2,3,4,5,6,7,8,9,10,11,12,13,14,15,16,17,18,19,20,21,22,23,24,25,26,27,28,29,30,31,32,33,34,35,36,37,38,39,40,41},
	{2,3,4,5,6,7,8,9,10,11,12,13,14,15,17,18,19,20,21,24,25,27,28,29,32,33,34,35,37,38,39,40,41},
	{2,3,4,6,7,8,9,10,12,13,14,15,16,19,20,21,22,23,24,26,27,28,29,30,31,33,34,36,37,38,39,40},
	{2,3,4,5,6,7,8,9,11,12,13,14,15,16,17,18,19,20,21,22,23,24,25,26,28,29,30,31,32,33,34,35,36,37,38,39,40,41},
	{2,3,4,5,6,7,8,9,10,11,12,13,14,15,16,17,18,19,20,21,22,23,24,25,26,27,28,29,30,31,32,33,34,35,36,37,38,39,40,41},
	{4,6,7,8,9,10,12,13,16,26,27,28,31,34,36,37,38,39,40},
	{2,3,4,5,6,7,8,9,10,11,12,13,14,15,16,17,18,19,20,21,22,23,24,25,26,27,28,29,30,31,32,33,34,35,36,37,38,39,40,41},
	{2,3,4,5,6,7,8,9,10,11,12,13,16,17,18,19,20,21,22,23,24,25,26,27,28,30,31,32,34,35,36,37,38,39,40,41},
	{2,3,4,5,6,7,8,9,10,11,12,13,14,15,16,17,18,19,20,21,22,23,24,25,26,27,28,29,30,31,32,33,34,35,36,37,38,39,40,41},
	{2,3,4,5,6,7,8,9,10,11,12,13,14,15,17,18,19,20,21,24,25,27,28,29,32,33,34,35,37,38,39,40,41},
	{2,3,4,5,6,7,8,9,10,11,12,13,14,15,16,17,18,19,20,21,22,23,24,25,26,27,28,29,30,31,32,33,34,35,36,37,38,39,40,41},
	{2,3,4,5,6,7,8,9,10,11,12,13,14,15,16,17,18,19,20,21,22,23,24,25,26,27,28,29,30,31,32,33,34,35,36,37,38,39,40,41},
	{2,3,4,5,6,7,8,9,10,11,12,13,14,15,16,17,18,19,20,21,22,23,24,25,26,27,28,29,30,31,32,33,34,35,36,37,38,39,40,41},
	{2,3,4,5,6,7,8,9,10,11,12,13,14,15,16,17,18,19,20,21,22,23,24,25,26,27,28,29,30,31,32,33,34,35,36,37,38,39,40,41},
	{2,3,4,5,6,7,8,9,10,11,12,13,14,15,17,18,19,20,21,24,25,27,28,29,32,33,34,35,37,38,39,40,41},
	{2,3,4,5,6,7,8,9,10,11,12,13,14,15,16,17,18,19,20,21,22,23,24,25,26,27,28,29,30,31,32,33,34,35,36,37,38,39,40,41},
	{2,3,4,5,6,7,8,9,10,11,12,13,14,15,16,17,18,19,20,21,22,23,24,25,26,27,28,29,30,31,32,33,34,35,36,37,38,39,40,41}];
